# Objective value = 30
WA1n 0
WA1p 0
WA2n 1
WA2p 0
WB1n 0
WB1p 0
WB2n 0
WB2p 1
WC1n 0
WC1p 1
WD1n 0
WD1p 1
WD2n 0
WD2p 1
WE1n 0
WE1p 2
WE2n 0
WE2p 1
WF1n 4
WF1p 0
WG1n 0
WG1p 6
WG2n 0
WG2p 1
WT1n 0
WT1p 6
5 7
a 0
b 0
c 0
d 1
e 1
f 1
g 1
h 1
i 1
j 0
k 1
l 1
m 1
